p cnf 15 30
x .2 2 3 .2 1 4 .2 2 4 .2 3 4 .2 1 5 .2 2 5 .2 4 6 .2 5 6 .2 2 7 .2 4 7 .2 5 7 .2 1 8 .2 2 8 .2 3 8 .2 4 8 .2 5 8 .2 6 8 .2 7 8 .2 1 9 .2 2 9 .2 3 9 .2 4 9 .2 6 10 .2 8 10 .2 2 11 .2 3 11 .2 4 11 .2 6 11 .2 9 11 .2 10 11 .2 3 12 .2 5 12 .2 6 12 .2 7 12 .2 9 12 .2 11 12 .2 1 13 .2 2 13 .2 4 13 .2 5 13 .2 6 13 .2 7 13 .2 9 13 .2 1 14 .2 3 14 .2 4 14 .2 5 14 .2 6 14 .2 12 14 .2 13 14 .2 1 15 .2 4 15 .2 6 15 .2 9 15 .2 10 15 .2 11 15 .2 12 15 .2 13 15 .2 14 15 1 2 3 5 7 8 11 12 14 15 T 0
x .2 2 4 .2 1 5 .2 4 5 .2 2 6 .2 4 6 .2 5 6 .2 1 7 .2 2 7 .2 3 7 .2 4 7 .2 6 7 .2 4 8 .2 5 8 .2 6 8 .2 3 9 .2 5 9 .2 7 9 .2 4 10 .2 5 10 .2 7 10 .2 8 10 .2 2 11 .2 3 11 .2 6 11 .2 7 11 .2 8 11 .2 9 11 .2 10 11 .2 1 12 .2 2 12 .2 5 12 .2 6 12 .2 9 12 .2 10 12 .2 5 13 .2 6 13 .2 7 13 .2 8 13 .2 9 13 .2 11 13 .2 12 13 .2 2 14 .2 7 14 .2 11 14 .2 12 14 .2 13 14 .2 1 15 .2 5 15 .2 8 15 .2 10 15 .2 11 15 .2 12 15 2 3 5 8 11 13 15 T 0
x .2 1 2 .2 1 3 .2 2 3 .2 1 5 .2 3 5 .2 4 5 .2 2 6 .2 3 6 .2 4 6 .2 1 7 .2 4 7 .2 5 7 .2 6 7 .2 7 8 .2 1 9 .2 2 9 .2 4 10 .2 5 10 .2 7 10 .2 8 10 .2 1 11 .2 2 11 .2 4 11 .2 6 11 .2 10 11 .2 1 12 .2 4 12 .2 5 12 .2 6 12 .2 8 12 .2 2 13 .2 4 13 .2 6 13 .2 10 13 .2 12 13 .2 1 14 .2 2 14 .2 3 14 .2 4 14 .2 5 14 .2 6 14 .2 7 14 .2 8 14 .2 9 14 .2 12 14 .2 1 15 .2 5 15 .2 7 15 .2 10 15 .2 12 15 .2 14 15 2 3 4 5 6 8 9 13 0
x .2 1 2 .2 1 3 .2 1 4 .2 2 4 .2 3 4 .2 3 5 .2 1 6 .2 2 6 .2 3 6 .2 4 6 .2 5 6 .2 3 7 .2 5 7 .2 3 8 .2 4 8 .2 5 8 .2 2 9 .2 3 9 .2 4 9 .2 5 9 .2 6 9 .2 7 9 .2 2 10 .2 3 10 .2 6 10 .2 7 10 .2 9 10 .2 2 11 .2 3 11 .2 4 11 .2 5 11 .2 7 11 .2 8 11 .2 10 11 .2 1 12 .2 4 12 .2 5 12 .2 9 12 .2 10 12 .2 3 13 .2 4 13 .2 6 13 .2 7 13 .2 8 13 .2 9 13 .2 11 13 .2 12 13 .2 1 14 .2 2 14 .2 4 14 .2 6 14 .2 11 14 .2 12 14 .2 2 15 .2 3 15 .2 4 15 .2 7 15 .2 8 15 1 2 4 6 8 13 0
x .2 1 2 .2 1 4 .2 2 4 .2 3 4 .2 1 6 .2 2 6 .2 3 6 .2 4 6 .2 5 6 .2 1 7 .2 2 7 .2 3 7 .2 4 7 .2 5 7 .2 6 7 .2 1 8 .2 2 8 .2 3 8 .2 5 8 .2 1 9 .2 3 9 .2 7 9 .2 1 10 .2 3 10 .2 4 10 .2 5 10 .2 6 10 .2 2 11 .2 3 11 .2 10 11 .2 2 12 .2 4 12 .2 5 12 .2 6 12 .2 8 12 .2 6 13 .2 7 13 .2 8 13 .2 11 13 .2 1 14 .2 4 14 .2 7 14 .2 8 14 .2 9 14 .2 12 14 .2 13 14 .2 3 15 .2 4 15 .2 5 15 .2 6 15 .2 7 15 .2 8 15 .2 10 15 .2 11 15 .2 12 15 .2 14 15 1 2 5 10 12 13 0
x .2 1 2 .2 1 3 .2 1 4 .2 3 4 .2 4 5 .2 1 6 .2 2 6 .2 4 6 .2 1 7 .2 2 7 .2 3 7 .2 4 7 .2 5 7 .2 1 8 .2 2 8 .2 3 8 .2 5 8 .2 7 8 .2 2 9 .2 5 9 .2 6 9 .2 8 9 .2 2 10 .2 4 10 .2 5 10 .2 9 10 .2 4 11 .2 5 11 .2 8 11 .2 9 11 .2 10 11 .2 2 12 .2 3 12 .2 6 12 .2 7 12 .2 9 12 .2 10 12 .2 3 13 .2 4 13 .2 5 13 .2 6 13 .2 9 13 .2 10 13 .2 11 13 .2 12 13 .2 1 14 .2 6 14 .2 10 14 .2 1 15 .2 2 15 .2 3 15 .2 9 15 .2 13 15 .2 14 15 1 2 5 11 0
x .2 1 2 .2 2 3 .2 2 5 .2 4 5 .2 1 6 .2 3 6 .2 4 6 .2 5 6 .2 1 7 .2 3 7 .2 4 7 .2 5 7 .2 6 7 .2 2 8 .2 5 8 .2 2 9 .2 3 9 .2 4 9 .2 5 9 .2 6 9 .2 1 10 .2 2 10 .2 5 10 .2 6 10 .2 9 10 .2 2 11 .2 1 12 .2 3 12 .2 7 12 .2 9 12 .2 10 12 .2 1 13 .2 2 13 .2 3 13 .2 9 13 .2 2 14 .2 3 14 .2 4 14 .2 6 14 .2 11 14 .2 12 14 .2 7 15 .2 8 15 .2 12 15 .2 13 15 1 2 3 7 9 11 12 13 T 0
x .2 1 3 .2 2 4 .2 3 4 .2 2 5 .2 3 5 .2 4 5 .2 3 6 .2 4 6 .2 5 6 .2 1 7 .2 3 7 .2 2 8 .2 3 8 .2 6 8 .2 1 9 .2 2 9 .2 4 9 .2 6 9 .2 8 9 .2 2 10 .2 5 10 .2 6 10 .2 3 11 .2 5 11 .2 6 11 .2 9 11 .2 1 12 .2 3 12 .2 7 12 .2 11 12 .2 3 13 .2 6 13 .2 9 13 .2 11 13 .2 1 14 .2 2 14 .2 4 14 .2 6 14 .2 7 14 .2 9 14 .2 10 14 .2 2 15 .2 3 15 .2 9 15 .2 10 15 .2 11 15 4 6 7 10 12 14 T 0
x .2 1 2 .2 1 5 .2 2 5 .2 1 6 .2 2 6 .2 3 6 .2 1 7 .2 3 7 .2 6 7 .2 1 8 .2 2 8 .2 3 8 .2 5 8 .2 6 8 .2 7 8 .2 1 9 .2 3 9 .2 4 9 .2 7 9 .2 4 10 .2 7 10 .2 8 10 .2 9 10 .2 4 11 .2 5 11 .2 6 11 .2 7 11 .2 10 11 .2 1 12 .2 2 12 .2 6 12 .2 7 12 .2 8 12 .2 9 12 .2 11 12 .2 1 13 .2 2 13 .2 5 13 .2 6 13 .2 8 13 .2 9 13 .2 10 13 .2 11 13 .2 3 14 .2 4 14 .2 6 14 .2 8 14 .2 13 14 .2 3 15 .2 4 15 .2 5 15 .2 6 15 .2 7 15 .2 8 15 .2 10 15 .2 11 15 .2 13 15 .2 14 15 1 2 8 9 12 T 0
x .2 2 3 .2 2 5 .2 4 5 .2 1 6 .2 2 7 .2 4 7 .2 1 8 .2 4 8 .2 1 9 .2 3 9 .2 4 9 .2 5 9 .2 6 9 .2 1 10 .2 1 11 .2 3 11 .2 4 11 .2 9 11 .2 3 12 .2 4 12 .2 6 12 .2 7 12 .2 11 12 .2 1 13 .2 2 13 .2 3 13 .2 5 13 .2 6 13 .2 7 13 .2 8 13 .2 10 13 .2 12 13 .2 5 14 .2 6 14 .2 9 14 .2 10 14 .2 11 14 .2 2 15 .2 5 15 .2 6 15 .2 9 15 .2 11 15 .2 14 15 2 3 5 10 12 13 15 0
x .2 1 3 .2 2 4 .2 2 5 .2 3 6 .2 5 6 .2 1 7 .2 2 7 .2 3 7 .2 6 7 .2 1 8 .2 4 8 .2 1 9 .2 2 9 .2 5 9 .2 7 9 .2 8 9 .2 2 10 .2 5 10 .2 6 10 .2 1 11 .2 2 11 .2 3 11 .2 6 11 .2 8 11 .2 9 11 .2 10 11 .2 2 12 .2 3 12 .2 5 12 .2 6 12 .2 8 12 .2 10 12 .2 3 13 .2 6 13 .2 9 13 .2 10 13 .2 11 13 .2 12 13 .2 1 14 .2 4 14 .2 5 14 .2 6 14 .2 8 14 .2 9 14 .2 10 14 .2 1 15 .2 5 15 .2 8 15 .2 9 15 .2 11 15 .2 12 15 3 5 6 7 9 10 13 0
x .2 1 3 .2 2 3 .2 3 4 .2 1 5 .2 2 5 .2 2 6 .2 5 6 .2 1 7 .2 3 7 .2 4 7 .2 6 7 .2 2 8 .2 4 8 .2 7 8 .2 3 9 .2 4 9 .2 5 9 .2 1 10 .2 4 10 .2 5 10 .2 6 10 .2 9 10 .2 4 11 .2 5 11 .2 6 11 .2 8 11 .2 9 11 .2 2 12 .2 3 12 .2 4 12 .2 6 12 .2 7 12 .2 9 12 .2 2 13 .2 3 13 .2 5 13 .2 10 13 .2 11 13 .2 12 13 .2 4 14 .2 6 14 .2 7 14 .2 8 14 .2 9 14 .2 10 14 .2 1 15 .2 5 15 .2 7 15 .2 8 15 .2 10 15 .2 11 15 .2 13 15 1 2 5 7 8 10 14 15 T 0
x .2 1 2 .2 1 3 .2 4 5 .2 3 6 .2 5 6 .2 2 7 .2 4 7 .2 5 7 .2 1 8 .2 2 8 .2 4 8 .2 5 8 .2 1 9 .2 2 9 .2 3 9 .2 6 9 .2 7 9 .2 8 9 .2 2 10 .2 4 10 .2 5 10 .2 7 10 .2 2 11 .2 3 11 .2 5 11 .2 8 11 .2 1 12 .2 6 12 .2 8 12 .2 9 12 .2 10 12 .2 4 13 .2 6 13 .2 7 13 .2 8 13 .2 11 13 .2 12 13 .2 1 14 .2 2 14 .2 3 14 .2 7 14 .2 9 14 .2 10 14 .2 11 14 .2 13 14 .2 1 15 .2 2 15 .2 6 15 .2 11 15 .2 12 15 .2 13 15 1 2 5 6 7 8 10 11 12 13 14 T 0
x .2 1 2 .2 1 3 .2 1 4 .2 2 4 .2 3 4 .2 1 5 .2 4 5 .2 2 6 .2 3 6 .2 1 7 .2 3 7 .2 4 8 .2 5 8 .2 1 9 .2 3 9 .2 4 9 .2 6 9 .2 8 9 .2 3 10 .2 4 10 .2 6 10 .2 1 11 .2 3 11 .2 5 11 .2 10 11 .2 1 12 .2 2 12 .2 4 12 .2 9 12 .2 10 12 .2 1 13 .2 4 13 .2 6 13 .2 7 13 .2 9 13 .2 10 13 .2 1 14 .2 3 14 .2 4 14 .2 8 14 .2 10 14 .2 12 14 .2 2 15 .2 3 15 .2 6 15 .2 7 15 .2 9 15 .2 11 15 .2 12 15 .2 13 15 .2 14 15 1 5 6 7 8 13 0
x .2 1 2 .2 1 3 .2 2 3 .2 1 4 .2 3 4 .2 1 5 .2 2 5 .2 4 5 .2 3 6 .2 1 7 .2 2 7 .2 3 7 .2 4 8 .2 5 8 .2 6 8 .2 7 8 .2 4 9 .2 3 10 .2 5 10 .2 8 10 .2 9 10 .2 1 11 .2 4 11 .2 5 11 .2 7 11 .2 10 11 .2 1 12 .2 4 12 .2 5 12 .2 6 12 .2 8 12 .2 9 12 .2 1 13 .2 2 13 .2 6 13 .2 8 13 .2 9 13 .2 11 13 .2 12 13 .2 2 14 .2 4 14 .2 5 14 .2 6 14 .2 7 14 .2 9 14 .2 11 14 .2 12 14 .2 1 15 .2 6 15 .2 7 15 .2 8 15 2 7 8 9 10 11 12 14 0
x .2 1 2 .2 2 3 .2 3 4 .2 3 5 .2 4 5 .2 2 6 .2 3 6 .2 1 7 .2 2 7 .2 5 7 .2 1 8 .2 4 8 .2 6 8 .2 3 9 .2 4 9 .2 5 9 .2 7 9 .2 1 10 .2 2 10 .2 4 10 .2 6 10 .2 2 11 .2 3 11 .2 4 11 .2 5 11 .2 6 11 .2 7 11 .2 9 11 .2 3 12 .2 7 12 .2 8 12 .2 9 12 .2 10 12 .2 2 13 .2 3 13 .2 5 13 .2 6 13 .2 7 13 .2 9 13 .2 10 13 .2 11 13 .2 2 14 .2 3 14 .2 4 14 .2 5 14 .2 6 14 .2 7 14 .2 9 14 .2 10 14 .2 11 14 .2 12 14 .2 13 14 .2 1 15 .2 2 15 .2 3 15 .2 5 15 .2 6 15 .2 7 15 .2 8 15 .2 11 15 1 2 4 9 10 12 13 15 T 0
x .2 1 2 .2 1 3 .2 2 4 .2 1 5 .2 2 5 .2 3 5 .2 4 5 .2 1 6 .2 2 6 .2 3 6 .2 4 6 .2 1 7 .2 2 7 .2 3 7 .2 5 7 .2 6 7 .2 1 8 .2 2 8 .2 3 8 .2 4 8 .2 5 8 .2 6 8 .2 7 8 .2 1 9 .2 2 9 .2 4 9 .2 5 9 .2 6 9 .2 8 9 .2 2 10 .2 3 10 .2 6 10 .2 9 10 .2 2 11 .2 3 11 .2 4 11 .2 5 11 .2 7 11 .2 8 11 .2 9 11 .2 10 11 .2 1 12 .2 2 12 .2 3 12 .2 4 12 .2 6 12 .2 7 12 .2 8 12 .2 10 12 .2 11 12 .2 1 13 .2 3 13 .2 4 13 .2 5 13 .2 7 13 .2 8 13 .2 9 13 .2 1 14 .2 2 14 .2 3 14 .2 4 14 .2 7 14 .2 11 14 .2 12 14 .2 6 15 .2 9 15 .2 11 15 1 5 8 9 10 12 13 14 15 T 0
x .2 1 2 .2 1 3 .2 2 3 .2 1 4 .2 4 5 .2 1 6 .2 4 6 .2 5 6 .2 2 7 .2 3 7 .2 2 8 .2 3 8 .2 4 8 .2 6 8 .2 7 8 .2 3 9 .2 5 9 .2 7 9 .2 5 10 .2 7 10 .2 9 10 .2 1 11 .2 2 11 .2 6 11 .2 7 11 .2 8 11 .2 9 11 .2 10 11 .2 1 12 .2 2 12 .2 8 12 .2 11 12 .2 2 13 .2 4 13 .2 6 13 .2 7 13 .2 10 13 .2 1 14 .2 2 14 .2 3 14 .2 8 14 .2 9 14 .2 11 14 .2 13 14 .2 3 15 .2 5 15 .2 7 15 .2 8 15 .2 12 15 1 3 4 5 9 13 14 15 T 0
x .2 1 2 .2 1 4 .2 2 4 .2 3 4 .2 2 5 .2 3 5 .2 4 5 .2 1 6 .2 3 6 .2 4 6 .2 5 6 .2 1 7 .2 3 7 .2 4 7 .2 5 7 .2 6 7 .2 1 8 .2 2 8 .2 3 8 .2 4 8 .2 1 9 .2 2 9 .2 3 9 .2 4 9 .2 5 9 .2 6 9 .2 1 10 .2 2 10 .2 3 10 .2 4 10 .2 5 10 .2 6 10 .2 7 10 .2 8 10 .2 3 11 .2 5 11 .2 6 11 .2 7 11 .2 10 11 .2 1 12 .2 2 12 .2 3 12 .2 4 12 .2 5 12 .2 6 12 .2 7 12 .2 10 12 .2 11 12 .2 2 13 .2 6 13 .2 9 13 .2 10 13 .2 1 14 .2 2 14 .2 3 14 .2 5 14 .2 6 14 .2 8 14 .2 9 14 .2 10 14 .2 11 14 .2 12 14 .2 13 14 .2 1 15 .2 3 15 .2 6 15 .2 8 15 .2 9 15 .2 10 15 .2 13 15 3 4 5 6 7 9 10 12 13 15 T 0
x .2 1 2 .2 2 3 .2 1 4 .2 3 4 .2 2 5 .2 4 5 .2 1 6 .2 2 6 .2 3 6 .2 2 7 .2 3 7 .2 4 7 .2 5 7 .2 4 8 .2 5 8 .2 6 8 .2 7 8 .2 2 9 .2 6 9 .2 7 9 .2 3 10 .2 4 10 .2 6 10 .2 7 10 .2 8 10 .2 9 10 .2 4 11 .2 5 11 .2 6 11 .2 7 11 .2 8 11 .2 10 11 .2 2 12 .2 5 12 .2 6 12 .2 7 12 .2 9 12 .2 10 12 .2 1 13 .2 5 13 .2 7 13 .2 8 13 .2 4 14 .2 5 14 .2 6 14 .2 7 14 .2 9 14 .2 12 14 .2 1 15 .2 3 15 .2 6 15 .2 11 15 .2 12 15 .2 13 15 1 2 3 4 8 9 10 11 12 13 15 0
x .2 1 3 .2 2 3 .2 1 4 .2 2 5 .2 3 5 .2 4 5 .2 2 6 .2 4 6 .2 1 7 .2 2 7 .2 3 7 .2 6 7 .2 2 8 .2 6 8 .2 1 9 .2 2 9 .2 4 9 .2 7 9 .2 1 10 .2 2 10 .2 3 10 .2 4 10 .2 5 10 .2 8 10 .2 9 10 .2 1 11 .2 2 11 .2 5 11 .2 6 11 .2 7 11 .2 8 11 .2 10 11 .2 6 12 .2 7 12 .2 8 12 .2 9 12 .2 10 12 .2 2 13 .2 5 13 .2 6 13 .2 8 13 .2 9 13 .2 10 14 .2 12 14 .2 13 14 .2 1 15 .2 2 15 .2 3 15 .2 4 15 .2 5 15 .2 7 15 .2 11 15 .2 12 15 .2 13 15 .2 14 15 2 3 5 7 9 12 13 14 15 0
x .2 1 2 .2 1 3 .2 1 4 .2 1 5 .2 2 5 .2 4 5 .2 2 6 .2 4 6 .2 6 7 .2 1 8 .2 3 8 .2 4 8 .2 6 8 .2 1 9 .2 3 9 .2 4 9 .2 5 9 .2 6 9 .2 7 9 .2 8 9 .2 2 10 .2 3 10 .2 4 10 .2 5 10 .2 6 10 .2 8 10 .2 9 10 .2 4 11 .2 6 11 .2 8 11 .2 10 11 .2 1 12 .2 3 12 .2 5 12 .2 7 12 .2 10 12 .2 3 13 .2 6 13 .2 7 13 .2 11 13 .2 2 14 .2 4 14 .2 5 14 .2 6 14 .2 7 14 .2 10 14 .2 1 15 .2 6 15 .2 8 15 .2 13 15 2 3 4 7 11 12 13 15 0
x .2 1 2 .2 2 3 .2 1 4 .2 2 4 .2 3 4 .2 1 6 .2 2 6 .2 5 6 .2 1 7 .2 3 7 .2 5 7 .2 4 8 .2 5 8 .2 2 9 .2 3 9 .2 5 9 .2 7 9 .2 1 10 .2 4 10 .2 5 10 .2 6 10 .2 9 10 .2 1 11 .2 3 11 .2 6 11 .2 7 11 .2 10 11 .2 10 12 .2 11 12 .2 1 13 .2 4 13 .2 5 13 .2 6 13 .2 10 13 .2 12 13 .2 2 14 .2 3 14 .2 4 14 .2 6 14 .2 8 14 .2 10 14 .2 12 14 .2 3 15 .2 4 15 .2 6 15 .2 7 15 .2 8 15 .2 10 15 .2 11 15 .2 12 15 .2 14 15 4 5 9 12 13 14 T 0
x .2 1 3 .2 2 3 .2 1 4 .2 2 4 .2 3 4 .2 2 5 .2 3 5 .2 4 5 .2 1 6 .2 3 6 .2 3 7 .2 4 7 .2 5 7 .2 6 7 .2 1 8 .2 2 8 .2 3 8 .2 4 8 .2 5 8 .2 5 9 .2 6 9 .2 3 11 .2 6 11 .2 8 11 .2 10 11 .2 2 12 .2 3 12 .2 4 12 .2 5 12 .2 7 12 .2 9 12 .2 10 12 .2 11 12 .2 1 13 .2 7 13 .2 8 13 .2 9 13 .2 2 14 .2 3 14 .2 4 14 .2 5 14 .2 11 14 .2 12 14 .2 13 14 .2 1 15 .2 3 15 .2 4 15 .2 6 15 .2 7 15 .2 10 15 .2 11 15 .2 12 15 .2 14 15 1 3 6 7 9 11 12 13 14 T 0
x .2 2 3 .2 1 4 .2 2 4 .2 3 4 .2 1 5 .2 4 5 .2 1 6 .2 2 6 .2 3 6 .2 5 6 .2 5 7 .2 6 7 .2 2 8 .2 5 8 .2 6 8 .2 4 9 .2 5 9 .2 6 9 .2 7 10 .2 8 10 .2 9 10 .2 1 11 .2 2 11 .2 3 11 .2 4 11 .2 5 11 .2 10 11 .2 2 12 .2 3 12 .2 5 12 .2 8 12 .2 7 13 .2 9 13 .2 11 13 .2 9 14 .2 10 14 .2 13 14 .2 5 15 .2 6 15 .2 7 15 .2 8 15 .2 9 15 .2 10 15 .2 13 15 1 2 3 4 7 8 11 12 13 14 15 T 0
x .2 2 3 .2 2 5 .2 3 5 .2 2 6 .2 3 6 .2 3 7 .2 4 7 .2 5 7 .2 3 8 .2 5 8 .2 6 8 .2 6 9 .2 8 9 .2 2 10 .2 3 10 .2 4 10 .2 5 10 .2 7 10 .2 4 11 .2 6 11 .2 7 11 .2 8 11 .2 1 12 .2 4 12 .2 7 12 .2 10 12 .2 11 12 .2 2 13 .2 3 13 .2 5 13 .2 7 13 .2 8 13 .2 9 13 .2 10 13 .2 1 14 .2 3 14 .2 4 14 .2 6 14 .2 7 14 .2 8 14 .2 9 14 .2 12 14 .2 1 15 .2 5 15 .2 6 15 .2 8 15 .2 10 15 .2 11 15 .2 14 15 5 9 10 12 14 15 0
x .2 1 4 .2 1 5 .2 3 5 .2 4 5 .2 1 6 .2 2 6 .2 5 6 .2 3 7 .2 4 7 .2 5 7 .2 6 7 .2 1 8 .2 2 8 .2 4 8 .2 5 8 .2 6 8 .2 2 9 .2 5 9 .2 6 9 .2 7 9 .2 8 9 .2 5 10 .2 7 10 .2 8 10 .2 9 10 .2 1 11 .2 2 11 .2 5 11 .2 9 11 .2 10 11 .2 1 12 .2 4 12 .2 8 12 .2 9 12 .2 10 12 .2 1 13 .2 3 13 .2 5 13 .2 11 13 .2 12 13 .2 3 14 .2 4 14 .2 7 14 .2 10 14 .2 12 14 .2 13 14 .2 1 15 .2 2 15 .2 5 15 .2 14 15 1 3 6 7 8 9 10 11 12 13 14 15 0
x .2 1 2 .2 1 3 .2 2 3 .2 3 4 .2 1 5 .2 3 5 .2 4 5 .2 1 6 .2 3 6 .2 5 6 .2 1 7 .2 4 7 .2 5 7 .2 4 8 .2 6 8 .2 7 8 .2 2 9 .2 4 9 .2 7 9 .2 8 9 .2 2 10 .2 3 10 .2 5 10 .2 6 10 .2 7 10 .2 4 11 .2 6 11 .2 8 11 .2 6 12 .2 4 13 .2 5 13 .2 6 13 .2 5 14 .2 6 14 .2 7 14 .2 10 14 .2 11 14 .2 2 15 .2 3 15 .2 6 15 .2 8 15 .2 11 15 .2 14 15 4 5 9 11 12 13 14 0
x .2 1 2 .2 1 3 .2 2 4 .2 1 5 .2 3 5 .2 4 5 .2 1 6 .2 3 6 .2 4 6 .2 5 6 .2 2 7 .2 3 8 .2 4 8 .2 7 8 .2 1 9 .2 3 9 .2 4 9 .2 7 9 .2 2 10 .2 6 10 .2 9 10 .2 2 11 .2 3 11 .2 6 11 .2 7 11 .2 8 11 .2 9 11 .2 2 12 .2 8 12 .2 9 12 .2 11 12 .2 1 13 .2 3 13 .2 5 13 .2 8 13 .2 9 13 .2 10 13 .2 11 13 .2 12 13 .2 2 14 .2 6 14 .2 8 14 .2 9 14 .2 10 14 .2 12 14 .2 13 14 .2 1 15 .2 4 15 .2 6 15 .2 8 15 1 2 5 8 9 10 11 12 13 14 15 T 0
x .2 1 2 .2 1 3 .2 2 3 .2 1 4 .2 2 4 .2 3 4 .2 1 6 .2 2 6 .2 3 6 .2 4 6 .2 5 6 .2 2 7 .2 4 7 .2 1 8 .2 4 8 .2 6 8 .2 2 9 .2 3 9 .2 4 9 .2 5 9 .2 6 9 .2 7 9 .2 2 10 .2 3 10 .2 4 10 .2 5 10 .2 6 10 .2 7 10 .2 1 11 .2 2 11 .2 4 11 .2 5 11 .2 8 11 .2 4 12 .2 5 12 .2 6 12 .2 8 12 .2 10 12 .2 11 12 .2 1 13 .2 2 13 .2 3 13 .2 4 13 .2 5 13 .2 9 13 .2 11 13 .2 4 14 .2 6 14 .2 7 14 .2 9 14 .2 11 14 .2 12 14 .2 1 15 .2 4 15 .2 7 15 .2 9 15 .2 13 15 4 6 8 9 10 11 12 13 14 15 0
